NAME : brg180.2070.tour
COMMENT : Cost = 420_2070
COMMENT : Found by LKH [Keld Helsgaun] Thu Nov 16 17:25:52 2017
TYPE : TOUR
DIMENSION : 184
TOUR_SECTION
1
41
40
39
38
37
48
47
46
45
44
43
42
141
140
139
138
137
136
135
134
133
144
143
142
152
153
154
155
156
145
146
147
148
149
150
151
12
184
75
74
73
84
83
82
81
80
79
78
77
76
132
121
122
123
124
125
126
127
128
129
130
131
97
108
107
106
105
104
103
102
101
100
99
98
183
28
29
30
31
32
33
34
35
36
25
26
27
64
65
66
67
68
69
70
71
72
61
62
63
53
52
51
50
49
60
59
58
57
56
55
54
181
2
3
4
5
6
7
8
9
10
11
115
114
113
112
111
110
109
120
119
118
117
116
171
170
169
180
179
178
177
176
175
174
173
172
182
13
24
23
22
21
20
19
18
17
16
15
14
167
166
165
164
163
162
161
160
159
158
157
168
94
95
96
85
86
87
88
89
90
91
92
93
-1
EOF
